StringID		Type		X		Y		Demand		ServiceBy
D0		d		-7.6		16.5		0.0		-
C1		c		-6.7		-4.1		3.85		D/T
C2		c		-9.0		-8.3		4.89		D/T
C3		c		-13.9		-8.7		1.4		D/T
C4		c		-19.5		13.2		4.69		D/T
C5		c		-5.1		-2.8		3.51		D/T